(set-logic LIA)

(synth-fun check ( (__iv__input_0_ Int) (__iv__input_1_ Int) (__iv__input_2_ Int) (__iv__input_3_ Int) (__iv__input_4_ Int) (__iv__input_5_ Int) (__iv__input_6_ Int) (__iv__input_7_ Int) (__iv__input_8_ Int) (__iv__input_9_ Int) (__iv__input_10_ Int)) Int
((Start Int (ntInt))
(ntInt Int (
	0 1 2 3 4 -1 5 
	__iv__input_0_ __iv__input_1_ __iv__input_2_ __iv__input_3_ __iv__input_4_ __iv__input_5_ __iv__input_6_ __iv__input_7_ __iv__input_8_ __iv__input_9_ __iv__input_10_ 
	(* ntInt ntInt)
	(ite ntBool ntInt ntInt)
	(+ ntInt ntInt)
	(- ntInt ntInt)
))
(ntBool Bool (
	(not ntBool)
	(or ntBool ntBool)
	(and ntBool ntBool)
	(< ntInt ntInt)
	(= ntInt ntInt)
	(>= ntInt ntInt)
))
))

(constraint (=(check -1 0 0 1 0 0 0 1 0 0 -1) 1))
(constraint (=(check -1 0 0 1 0 0 0 1 0 -5 -1) 0))
(constraint (=(check 123 7 11 13 -5 32 -123 0 1 -64 -128) 0))
(constraint (=(check -5 -69 4 89 -1 160 -60 -2 -9 50 -3) 0))
(constraint (=(check -1 -67 -2 -124 0 0 -67 0 -7 44 -1) 0))
(constraint (=(check -1 0 1 0 0 2 0 0 7 0 0) 0))
(constraint (=(check -1 0 0 1 0 3 0 0 0 0 -4) 0))
(constraint (=(check -5 -3 1 6 0 0 0 0 0 0 0) 0))
(constraint (=(check -1 0 0 1 0 1 -7 -3 0 0 0) 0))
(constraint (=(check -7 0 0 -5 2 0 0 0 0 0 0) 0))
(constraint (=(check -5 -7 0 -6 0 0 -3 -1 0 3 0) 0))
(constraint (=(check -1 -67 -1 47 3 0 -67 0 -1 43 -7) 0))
(constraint (=(check -1 -60 -2 -126 -3 0 -72 -7 2 52 -1) 0))
(constraint (=(check 0 0 0 0 0 1 0 -6 0 -1 0) 0))
(constraint (=(check 0 -7 0 0 0 0 0 -1 0 1 -6) 0))
(constraint (=(check -121 -7 -128 -72 -5 110 19 0 -2 68 -84) 0))
(constraint (=(check 117 0 -1 -4 0 36 -123 1 -7 -60 -125) 0))
(constraint (=(check -7 -1 -1 0 -6 0 -8 -2 0 -3 0) 0))
(constraint (=(check 0 1 -2 0 7 3 0 0 0 0 0) 0))
(constraint (=(check -1 0 -6 1 -7 3 0 0 0 0 3) 0))
(constraint (=(check 4 -81 -1 46 3 4 -62 0 -9 52 -1) 0))
(constraint (=(check 123 0 2 2 -5 32 -118 0 0 -66 -128) 0))
(check-synth)